38059
0 0 1 0 1 0 1 0 1 0 0 1 0 1 0 0 0 1 1 1 1 1 0 1 1 1 0 1 1 0 
18 19 21 27 2 6 21 28 18 28 4 28 13 13 28 18 13 20 27 27 18 21 2 24 23 18 27 28 4 2 19 19 4 21 27 6 20 8 24 21 18 8 6 4 8 19 13 21 19 20 24 24 24 21 8 6 11 8 18 25 4 17 18 8 13 11 23 17 28 25 18 6 6 8 23 23 20 23 8 24 23 17 8 25 4 13 6 2 27 25 28 6 25 25 2 13 11 6 17 28 28 21 25 18 4 24 4 24 18 13 19 4 27 6 11 8 28 25 17 8 19 11 17 19 4 27 2 11 19 17 28 24 25 20 23 8 13 13 28 17 11 27 11 11 25 2 24 21 27 25 24 17 23 17 8 11 2 21 13 13 13 27 20 24 23 27 23 4 13 21 23 20 19 20 19 2 27 20 4 20 2 21 2 19 11 8 28 23 17 21 2 21 6 4 25 6 25 21 20 19 
